============================[ Problem Statistics ]=============================|                                                                             ||  Number of variables:          4242                                         ||  Number of clauses:            9696                                         ||  Parse time:                   0.10 s                                       ||                                                                             |============================[ Search Statistics ]==============================| Conflicts |          ORIGINAL         |          LEARNT          | Progress ||           |    Vars  Clauses Literals |    Limit  Clauses Lit/Cl |          |==============================================================================================================================================================restarts              : 1conflicts             : 62             (403 /sec)decisions             : 145            (0.00 % random) (942 /sec)propagations          : 8152           (52935 /sec)conflict literals     : 2922           (95.92 % deleted)CPU time              : 0.154 sSATISFIABLE